\ENCODING=ISO-8859-1
\Problem name: pharmapb

Maximize
 obj1: 6.5 x1 + 11.5 x2
Subject To
 C1: 2.5 x1 + 7.5 x2 <= 2404
 C2: 0.125 x1 + 0.125 x2 <= 51
 C3: 17.5 x1 + 10 x2 <= 5950
 C4: x1 >= 0
 C5: x2 >= 0
End
